# Solution for model count
# Objective value = 9
z#1 0
z#2 0
z#3 0
z#4 0
z#5 0
z#6 0
z#7 1
z#8 1
z#9 0
z#10 1
z#11 0
z#12 0
z#13 1
z#14 0
z#15 0
z#16 1
z#17 0
z#18 1
z#19 0
z#20 0
z#21 1
z#22 1
z#23 1
z#24 0
x#24 0
x#23 402
x#22 283
x#21 1480
x#20 0
x#19 0
x#18 2259
x#17 0
x#16 703
x#15 0
x#14 0
x#13 2627
x#12 0
x#11 0
x#10 1386
x#9 0
x#8 229
x#7 631
x#6 0
x#5 0
x#4 0
x#3 0
x#2 0
x#1 0
